44 412
1 3 8 12 14 19 21 22 24 27 28 29 35 36 38 39 43
0 4 5 7 8 10 12 15 19 20 22 23 28 29 33 34 35 37 39 41 43
4 5 7 11 12 14 15 16 18 20 21 22 24 25 30 36 37 40 43
0 5 6 7 13 14 16 18 20 22 24 26 27 31 32 36 37 40 43
1 2 7 10 14 17 19 20 22 24 25 27 32 36 37 42
1 2 3 6 7 8 9 10 12 13 16 17 18 19 20 23 25 26 28 29 33 34 40 41 43
3 5 10 19 20 29 30 35 38 39 40
1 2 3 4 5 14 15 16 17 20 22 29 30 32 35 36 37 38 39 41 42 43
0 1 5 10 15 16 22 24 26 27 28 31 32 33 35 36 41 42 43
5 12 13 15 19 21 24 25 26 28 30 31 32 35 39 41 42
1 4 5 6 8 12 14 15 16 17 19 22 24 26 27 29 32 34 36 37 38 40 42 43
2 12 14 20 25 26 30 32 33 38 40 42
0 1 2 5 9 10 11 13 17 23 24 26 30 32 33 35 38
3 5 9 12 14 15 20 22 24 25 29 32 34 36 41 42 43
0 2 3 4 7 10 11 13 17 18 20 23 24 25 29 31 32 34 35 38 39 40 42
1 2 7 8 9 10 13 16 17 20 25 30 31 34 36 37 39 40 42 43
2 3 5 7 8 10 15 19 20 23 25 27 29 30 35 37 42
4 5 7 10 12 14 15 18 20 22 25 30 31 34 35 36 39 43
2 3 5 14 17 19 21 22 27 28 29 30 31 32 36 37 39 41 42 43
0 1 4 5 6 9 10 16 18 23 26 28 30 32 33 35 36 37 40
1 2 3 4 5 6 7 11 13 14 15 16 17 21 25 27 29 33 34 36 37 40
0 2 9 18 20 23 26 27 28 29 30 31 32 33 36 37 41
0 1 2 3 4 7 8 10 13 17 18 26 27 28 29 36 38
1 5 12 14 16 19 21 33 41
0 2 3 4 8 9 10 12 13 14 26 27 32 34 41 42
2 4 5 9 11 13 14 15 16 17 20 29 32 35 36 37 43
3 5 8 9 10 11 12 19 21 22 24 27 28 31 33 34 35 36 38 40 42 43
0 3 4 8 10 16 18 20 21 22 24 26 28 29 32 34 40 42
0 1 5 8 9 18 19 21 22 26 27 29 36 39 40 43
0 1 5 6 7 10 13 14 16 18 20 21 22 25 27 28 31 33 37 39 41 42 43
2 6 7 9 11 12 15 16 17 18 19 21 33 36 38 42
3 8 9 14 15 17 18 21 26 29 32 33 37 38 41 42 43
3 4 7 8 9 10 11 12 13 14 18 19 21 24 25 27 31 36 37 39 41 42 43
1 5 8 11 12 19 20 21 23 26 29 30 31 36 38 40 42
1 5 10 13 14 15 17 20 24 26 27 36 39 40 41
0 1 6 7 8 9 12 14 16 17 19 25 26 36 38 39 40 41 42 43
0 2 3 4 7 8 10 13 15 17 18 19 20 21 22 25 26 28 30 32 33 34 35 39 40 42 43
1 2 3 4 7 10 15 16 18 19 20 21 25 29 31 32 38 39 40 41
0 6 7 10 11 12 14 22 26 30 31 33 35 37 41 42
0 1 6 7 9 14 15 17 18 28 29 32 34 35 36 37 41
2 3 5 6 10 11 14 15 19 20 26 27 28 33 34 35 36 37 41 42
1 5 7 8 9 13 18 21 23 24 29 31 32 34 35 37 38 39 40 43
4 7 8 9 10 11 13 14 15 16 18 24 26 27 29 30 31 32 33 35 36 38 40 43
0 1 2 3 5 7 8 10 13 15 17 18 25 26 28 29 31 32 35 36 41 42
